0420 0 1 330 345 364 379 392 408 424 443 457 471 491 510 526 540
1287 1 1 360 374 390 409 429 443 457 476 492 508 521 536 555 570
2974 0 2 540 548 565 579  603 621 630 645
3354 1 2 660 675 684 702  726 740 758 765
4895 0 3 1020 1026 1038 1049  1067 1080 1087 1098
5002 1 3 1320 1331 1338 1351  1369 1380 1392 1398
6180 0 1 465 480 499 514 527 543 559 578 592 606 626 645 661 675
7554 1 1 1380 1394 1410 1429 1449 1463 1477 1496 1512 1528 1541 1556 1575 1590
8210 0 2 605 613 630 644  668 686 695 710
9996 1 2 945 960 969 987  1011 1025 1043 1050
1623 0 3 1080 1086 1098 1109  1127 1140 1147 1158
2486 1 3 805 816 823 836  854 865 877 883
